p cnf 20 46
a 11 6 0
e 1 2 3 4 5 7 8 9 10 12 13 14 15 16 17 18 19 20 0
-3 1 0
-3 2 0
-1 -2 3 0
-3 -4 -5 0
3 4 -5 0
-3 4 5 0
3 -4 5 0
-8 -6 0
-8 -7 0
6 7 8 0
6 -9 -10 0
-6 9 -10 0
6 9 10 0
-6 -9 10 0
10 11 -12 0
-10 -11 -12 0
10 -11 12 0
-10 11 12 0
-13 -12 0
-13 -9 0
12 9 13 0
-13 14 -15 0
13 -14 -15 0
-13 -14 15 0
13 14 15 0
16 8 0
16 -15 0
-8 15 -16 0
-17 -5 0
-17 -16 0
5 16 17 0
18 11 0
18 -3 0
-11 3 -18 0
-13 -18 -19 0
13 18 -19 0
-13 18 19 0
13 -18 19 0
20 17 0
20 19 0
-17 -19 -20 0
19 -20 -12 -2 -8 10 -6 0
-2 -5 -6 20 -13 0
-13 3 -10 0
5 6 18 0
20 0
